1
69
27
101
53
28
26
12
80
68
77
76
50
3
79
33
81
9
51
20
66
65
71
35
34
78
29
24
54
55
25
4
39
67
23
56
75
41
22
74
72
73
21
40
58
13
94
95
97
87
2
57
15
43
42
14
44
38
86
16
61
93
85
91
100
98
37
92
59
99
96
6
89
52
18
83
60
5
84
17
45
46
8
82
48
7
88
31
10
62
11
19
47
36
49
64
63
90
32
30
70
1